p cnf 15 48
1 2 3 4 5 0
-1 -2 0
-1 -3 0
-1 -4 0
-1 -5 0
-2 -3 0
-2 -4 0
-2 -5 0
-3 -4 0
-3 -5 0
-4 -5 0
6 7 8 9 10 0
-6 -7 0
-6 -8 0
-6 -9 0
-6 -10 0
-7 -8 0
-7 -9 0
-7 -10 0
-8 -9 0
-8 -10 0
-9 -10 0
11 12 13 14 15 0
-11 -12 0
-11 -13 0
-11 -14 0
-11 -15 0
-12 -13 0
-12 -14 0
-12 -15 0
-13 -14 0
-13 -15 0
-14 -15 0
-1 -6 0
-2 -7 0
-3 -8 0
-4 -9 0
-5 -10 0
-6 -11 0
-7 -12 0
-8 -13 0
-9 -14 0
-10 -15 0
-1 -11 0
-2 -12 0
-3 -13 0
-4 -14 0
-5 -15 0